c WARNING: for repeatability, setting FPU to use double precision
d VARIABLES            61128        
d CONSTRAINTS          262365       
c ============================[ Problem Statistics ]=============================
c |                                                                             |
c |  Number of variables:         61128                                         |
c |  Number of clauses:          262365                                         |
c |  Parse time:                   0.04 s                                       |
c |                                                                             |
c ============================[ Search Statistics ]==============================
c | Conflicts |          ORIGINAL         |          LEARNT          | Progress |
c |           |    Vars  Clauses Literals |    Limit  Clauses Lit/Cl |          |
c ===============================================================================
c |       100 |   49344   228877   556186 |    83921      100     38 | 19.278 % |
c |       250 |   49344   228877   556186 |    92313      250     36 | 19.278 % |
c |       475 |   49344   228877   556186 |   101545      475     53 | 19.278 % |
c |       812 |   49344   228877   556186 |   111699      812     60 | 19.278 % |
c |      1318 |   49344   228877   556186 |   122869     1318     84 | 19.278 % |
c |      2077 |   49344   228877   556186 |   135156     2077     82 | 19.278 % |
c |      3216 |   49344   228877   556186 |   148672     3216    115 | 19.278 % |
c |      4924 |   49344   228877   556186 |   163539     4924    109 | 19.278 % |
c |      7486 |   49344   228877   556186 |   179893     7486    111 | 19.278 % |
c |     11330 |   49344   228877   556186 |   197882    11330    118 | 19.278 % |
c |     17096 |   49344   228877   556186 |   217670    17096    128 | 19.278 % |
c |     25745 |   49337   228843   556104 |   239438    25744    128 | 19.289 % |
c |     38719 |   49337   228843   556104 |   263381    38718    142 | 19.289 % |
c |     58180 |   49337   228843   556104 |   289720    58179    145 | 19.289 % |
c |     87372 |   49337   228843   556104 |   318692    87371    152 | 19.289 % |
c |    131161 |   49337   228843   556104 |   350561   131160    157 | 19.289 % |
c |    196845 |   49330   228809   556022 |   385617   196843    166 | 19.300 % |
c |    295371 |   49330   228809   556022 |   424179   295369    183 | 19.300 % |
c |    443160 |   49330   228809   556022 |   466596    26034    221 | 19.300 % |
c |    664843 |   49330   228809   556022 |   513256   247717    215 | 19.300 % |
c |    997368 |   49330   228809   556022 |   564582    70865    198 | 19.300 % |
c |   1496156 |   49330   228809   556022 |   621040   569653    174 | 19.300 % |
c |   2244338 |   49330   228809   556022 |   683144    90038    123 | 19.300 % |
c |   3366612 |   49330   228809   556022 |   751459   550262    124 | 19.300 % |
c ===============================================================================
c restarts              : 6094
c conflicts             : 3376344        (1884 /sec)
c decisions             : 8835893        (0.00 % random) (4931 /sec)
c propagations          : 3717071824     (2074208 /sec)
c conflict literals     : 547939723      (31.97 % deleted)
d RESTARTS             6094
d FAILURES             3376344      
d NODES                8835893      
d BACKTRACKS           8835893      
d PROPAGATIONS         3717071824   
d NOGOODSIZE           162.29 
d MEMORY               707.00 
d TIME                 1792.04 

s UNKNOWN
